%Mem=4GB
%NProcShared=8
%Chk=lig
# B3LYP/6-31G* SCF=XQC freq geom=check

UNK_CS

0 1


